Minimize
obj: 3x_1 + 2x_2 + 5x_3 + 3x_4 + 2x_5 + 1x_6 + 2x_7 + 6x_8 + 1x_9 + 5x_10 + 2x_11 + 3x_12 + 2x_13 + 1x_14 + 2x_15 + 6x_16 + 2x_17 + 1x_18 + 2x_19 + 1x_20 + 1x_21 + 1x_22 + 3x_23 + 1x_24
Subject To
x_25 = 1
x_26 = 1
x_1 - x_4 = 0
x_25 +  x_4 - x_1 +  x_2 - x_5 +  x_3 - x_10 = 0
x_5 - x_2 +  x_6 - x_9 = 0
x_10 - x_3 +  x_7 - x_11 +  x_8 - x_16 +  x_9 - x_6 = 0
x_14 - x_20 +  x_11 - x_7 +  x_12 - x_23 +  x_13 - x_15 = 0
x_17 - x_19 +  x_16 - x_8 +  x_18 - x_22 +  x_15 - x_13 = 0
x_19 - x_17 = 0
x_20 - x_14 +  x_22 - x_18 +  x_21 - x_24 = 0
-x_26 +  x_24 - x_21 +  x_23 - x_12 = 0
Bounds
x_1 >= 0
x_2 >= 0
x_3 >= 0
x_4 >= 0
x_5 >= 0
x_6 >= 0
x_7 >= 0
x_8 >= 0
x_9 >= 0
x_10 >= 0
x_11 >= 0
x_12 >= 0
x_13 >= 0
x_14 >= 0
x_15 >= 0
x_16 >= 0
x_17 >= 0
x_18 >= 0
x_19 >= 0
x_20 >= 0
x_21 >= 0
x_22 >= 0
x_23 >= 0
x_24 >= 0
x_25 >= 0
x_26 >= 0
General
Binaries
End
